100
100
87 64
32 23
5 81
75 72
31 75
38 83
75 65
74 43
26 69
24 85
42 43
61 12
22 41
60 13
56 55
29 16
59 19
32 27
33 3
5 68
86 91
69 49
14 72
41 54
85 51
83 33
91 29
61 17
91 63
41 21
99 89
1 84
6 86
79 61
53 95
85 36
14 76
50 70
84 48
17 41
41 20
76 91
77 37
95 24
83 81
39 70
30 43
46 88
30 7
82 82
19 41
83 87
14 86
92 53
0 15
8 80
99 88
62 25
28 31
20 24
80 73
35 88
23 66
83 72
36 68
12 94
61 53
52 91
81 85
75 48
28 51
12 14
24 43
62 41
44 99
79 6
53 85
40 51
59 96
12 75
81 88
81 44
85 28
23 85
33 41
12 56
34 54
37 85
34 73
74 63
1 50
0 86
69 75
3 14
61 27
54 2
51 59
98 97
69 52
53 69
